c A SAT instance generated from a 5-CNF formula that had 22 clauses and 5 variables
p cnf 5 22
-2 4 5 -1 -3 0
-2 -4 1 -3 5 0
-2 4 -1 5 -3 0
-3 -5 -1 4 -2 0
3 -5 -4 1 2 0
-5 -1 2 -3 4 0
5 1 3 2 4 0
5 4 -2 1 3 0
2 -3 -1 -5 -4 0
1 -3 2 -4 -5 0
-2 -4 5 3 1 0
4 -5 -1 2 3 0
5 -1 -2 -3 4 0
-4 -3 -1 5 2 0
5 -1 -4 3 -2 0
4 2 3 5 -1 0
4 -3 -1 2 -5 0
5 -4 1 2 -3 0
-2 3 -1 -5 -4 0
2 -5 3 4 1 0
2 -1 3 -4 5 0
3 -4 -2 -1 -5 0
